analyze/results_flowersnark/final_miplib_symretope_if_extended_generating_set_cpx_v802__settings_final_nosym_norestarts__4__square23.mps.gz.sol
solution status: optimal solution found
objective value:                                   13
x_1_1_7                                             1 	(obj:1)
x_1_8_6                                             1 	(obj:1)
x_1_14_10                                           1 	(obj:1)
x_7_8_1                                             1 	(obj:1)
x_7_9_3                                             1 	(obj:1)
x_7_12_2                                            1 	(obj:1)
x_8_1_6                                             1 	(obj:1)
x_8_7_2                                             1 	(obj:1)
x_9_12_2                                            1 	(obj:1)
x_10_7_4                                            1 	(obj:1)
x_10_11_1                                           1 	(obj:1)
x_11_11_13                                          1 	(obj:1)
x_14_1_10                                           1 	(obj:1)
y_13                                                1 	(obj:0)
y_10                                                2 	(obj:0)
y_7                                                 1 	(obj:0)
y_6                                                 2 	(obj:0)
y_4                                                 1 	(obj:0)
y_3                                                 1 	(obj:0)
y_2                                                 3 	(obj:0)
y_1                                                 2 	(obj:0)
