analyze/results_flowersnark/final_miplib_symretope_if_extended_generating_set_cpx_v802__settings_final_nosym_norestarts__4__square23.mps.gz.out
FILENAME:   /home/mcs001/s132664/testsets/IP/miplib2017/square23.mps.gz
SETTINGS:   settings_final_nosym_norestarts
TIMELIMIT:  7200
OUTPUTNAME: final_miplib_symretope_if_extended_generating_set_cpx_v802__settings_final_nosym_norestarts__4__
BINNAME:    bin/sbcs.linux.x86_64.gnu.opt.cpx
BASENAME:   square23.mps.gz
SEED:       4
@01 /home/mcs001/s132664/testsets/IP/miplib2017/square23.mps.gz ===========
@02 square23.mps.gz
@03 1686664933
SCIP version 8.0.2 [precision: 8 byte] [memory: block] [mode: optimized] [LP solver: CPLEX 20.1.0.0] [GitHash: 5f0473c]
Copyright (C) 2002-2022 Konrad-Zuse-Zentrum fuer Informationstechnik Berlin (ZIB)

Symretope propagation methods - (c) Jasper van Doornmalen, Christopher Hojny.
[GitHash: 2fd0484]

reading parameter file <../settings/settings_final_nosym_norestarts.set> ...

Changed settings:
limits/time = 7200
limits/restarts = 0
misc/usesymmetry = 0
randomization/randomseedshift = 4
constraints/orbisack/sepafreq = -1
constraints/symresack/sepafreq = -1
propagating/symmetry/detectsubgroups = FALSE
propagating/symmetry/usesymretopes = FALSE
propagating/symmetry/relabelsymretopes = 0
propagating/symmetry/ofsymcomptiming = 0
constraints/symretope/sepafreq = -1
constraints/symretope/peek = FALSE


solving problem ...

original problem has 11660 variables (11638 bin, 22 int, 0 impl, 0 cont) and 7887 constraints
presolving:
(round 1, fast)       7315 del vars, 7315 del conss, 0 add conss, 7337 chg bounds, 0 chg sides, 0 chg coeffs, 0 upgd conss, 0 impls, 529 clqs
(round 2, exhaustive) 7315 del vars, 7328 del conss, 0 add conss, 7337 chg bounds, 13 chg sides, 0 chg coeffs, 0 upgd conss, 0 impls, 529 clqs
(round 3, exhaustive) 7315 del vars, 7328 del conss, 0 add conss, 7337 chg bounds, 13 chg sides, 0 chg coeffs, 529 upgd conss, 0 impls, 529 clqs
   (5.1s) probing: 1000/4323 (23.1%) - 0 fixings, 0 aggregations, 17840 implications, 0 bound changes
   (5.1s) probing: 1001/4323 (23.2%) - 0 fixings, 0 aggregations, 17860 implications, 0 bound changes
   (5.1s) probing aborted: 1000/1000 successive useless probings
presolving (4 rounds: 4 fast, 3 medium, 3 exhaustive):
 7315 deleted vars, 7328 deleted constraints, 0 added constraints, 7337 tightened bounds, 0 added holes, 13 changed sides, 0 changed coefficients
 17593 implications, 796 cliques
presolved problem has 4345 variables (4323 bin, 22 int, 0 impl, 0 cont) and 559 constraints
    529 constraints of type <setppc>
     30 constraints of type <linear>
transformed objective value is always integral (scale: 1)
Presolving Time: 5.11

 time | node  | left  |LP iter|LP it/n|mem/heur|mdpt |vars |cons |rows |cuts |sepa|confs|strbr|  dualbound   | primalbound  |  gap   | compl. 
p 5.4s|     1 |     0 |     0 |     - |  clique|   0 |4345 | 559 | 559 |   0 |  0 |   0 |   0 | 4.000000e+00 | 2.600000e+01 | 550.00%| unknown
  6.9s|     1 |     0 |   505 |     - |   436M |   0 |4345 | 585 | 559 |   0 |  0 |  41 |   0 | 8.333333e+00 | 2.600000e+01 | 212.00%| unknown
d13.8s|     1 |     0 |  9340 |     - |conflict|   0 |4345 | 571 | 559 |   0 |  2 |  41 |   0 | 8.333333e+00 | 1.900000e+01 | 128.00%| unknown
 13.9s|     1 |     0 |  9340 |     - |   438M |   0 |4345 | 571 | 559 |   0 |  2 |  41 |   0 | 8.333333e+00 | 1.900000e+01 | 128.00%| unknown
 13.9s|     1 |     0 |  9340 |     - |   438M |   0 |4345 | 571 | 559 |   0 |  2 |  41 |   0 | 8.333333e+00 | 1.900000e+01 | 128.00%| unknown
 14.0s|     1 |     0 |  9340 |     - |   438M |   0 |4345 | 571 | 559 |   0 |  4 |  41 |   0 | 8.333333e+00 | 1.900000e+01 | 128.00%| unknown
 16.5s|     1 |     2 |  9340 |     - |   438M |   0 |4345 | 571 | 559 |   0 |  6 |  41 |  19 | 8.676364e+00 | 1.900000e+01 | 118.99%| unknown
*22.5s|     3 |     2 | 10297 |4896.0 |strongbr|   2 |4345 | 571 | 559 |   0 |  2 |  41 |  77 | 8.676364e+00 | 1.500000e+01 |  72.88%| unknown
*22.6s|     3 |     2 | 10297 |4896.0 |strongbr|   2 |4345 | 571 | 559 |   0 |  2 |  42 |  79 | 8.676364e+00 | 1.400000e+01 |  61.36%| unknown
*40.3s|    53 |     6 | 19525 | 365.8 |    LP  |  13 |4345 | 576 | 561 |   2 |  2 |  96 | 251 | 8.676364e+00 | 1.300000e+01 |  49.83%|  20.45%
 42.5s|   100 |     5 | 26814 | 265.7 |   441M |  25 |4345 | 611 | 559 |   2 |  0 | 139 | 266 | 8.676364e+00 | 1.300000e+01 |  49.83%|  36.30%

SCIP Status        : problem is solved [optimal solution found]
Solving Time (sec) : 48.19
Solving Nodes      : 195
Primal Bound       : +1.30000000000000e+01 (5 solutions)
Dual Bound         : +1.30000000000000e+01
Gap                : 0.00 %
SCIP Status        : problem is solved [optimal solution found]
Total Time         :      48.70
  solving          :      48.19
  presolving       :       5.11 (included in solving)
  reading          :       0.51
  copying          :       0.13 (6 #copies) (minimal 0.02, maximal 0.02, average 0.02)
Original Problem   :
  Problem name     : square23
  Variables        : 11660 (11638 binary, 22 integer, 0 implicit integer, 0 continuous)
  Constraints      : 7887 initial, 7887 maximal
  Objective        : minimize, 11638 non-zeros (abs.min = 1, abs.max = 1)
Presolved Problem  :
  Problem name     : t_square23
  Variables        : 4345 (4323 binary, 22 integer, 0 implicit integer, 0 continuous)
  Constraints      : 559 initial, 710 maximal
  Objective        : minimize, 4235 non-zeros (abs.min = 1, abs.max = 1)
  Nonzeros         : 269382 constraint, 143556 clique table
Presolvers         :   ExecTime  SetupTime  Calls  FixedVars   AggrVars   ChgTypes  ChgBounds   AddHoles    DelCons    AddCons   ChgSides   ChgCoefs
  boundshift       :       0.00       0.00      0          0          0          0          0          0          0          0          0          0
  convertinttobin  :       0.00       0.00      0          0          0          0          0          0          0          0          0          0
  domcol           :       0.04       0.00      1          0          0          0          0          0          0          0          0          0
  dualagg          :       0.00       0.00      0          0          0          0          0          0          0          0          0          0
  dualcomp         :       0.00       0.00      0          0          0          0          0          0          0          0          0          0
  dualinfer        :       0.00       0.00      0          0          0          0          0          0          0          0          0          0
  dualsparsify     :       0.23       0.00      1          0          0          0          0          0          0          0          0          0
  gateextraction   :       0.00       0.00      0          0          0          0          0          0          0          0          0          0
  implics          :       0.00       0.00      3          0          0          0          0          0          0          0          0          0
  inttobinary      :       0.00       0.00      4          0          0          0          0          0          0          0          0          0
  qpkktref         :       0.00       0.00      0          0          0          0          0          0          0          0          0          0
  redvub           :       0.00       0.00      0          0          0          0          0          0          0          0          0          0
  sparsify         :       0.30       0.00      1          0          0          0          0          0          0          0          0          0
  stuffing         :       0.00       0.00      0          0          0          0          0          0          0          0          0          0
  trivial          :       0.00       0.00      4          0          0          0          0          0          0          0          0          0
  tworowbnd        :       0.00       0.00      0          0          0          0          0          0          0          0          0          0
  dualfix          :       0.00       0.00      4          0          0          0          0          0          0          0          0          0
  genvbounds       :       0.00       0.00      0          0          0          0          0          0          0          0          0          0
  probing          :       3.33       0.00      1          0          0          0          0          0          0          0          0          0
  pseudoobj        :       0.00       0.00      0          0          0          0          0          0          0          0          0          0
  symmetry         :       0.00       0.00      0          0          0          0          0          0          0          0          0          0
  vbounds          :       0.01       0.00      1          0          0          0          0          0          0          0          0          0
  setppc           :       0.09       0.00      3          0          0          0          0          0          0          0          0          0
  linear           :       1.01       0.16      7       7315          0          0       7337          0       7328          0         13          0
  logicor          :       0.00       0.00      0          0          0          0          0          0          0          0          0          0
  bounddisjunction :       0.00       0.00      0          0          0          0          0          0          0          0          0          0
  benders          :       0.00       0.00      0          0          0          0          0          0          0          0          0          0
  components       :       0.04       0.00      1          0          0          0          0          0          0          0          0          0
  root node        :          -          -      -        767          -          -        805          -          -          -          -          -
Constraints        :     Number  MaxNumber  #Separate #Propagate    #EnfoLP    #EnfoRelax  #EnfoPS    #Check   #ResProp    Cutoffs    DomReds       Cuts    Applied      Conss   Children
  benderslp        :          0          0          0          0        135          0          0         19          0          0          0          0          0          0          0
  integral         :          0          0          0          0        135          0          0         19          0          0        125          0          0        192        196
  setppc           :        529+       551          3       6266          1          0          0         13      12690         30      31047          0          0          0          0
  linear           :         30         30          3       6236          1          0          0          4       1474          1       2768          0          0          0          0
  logicor          :          0+        16          3        380          0          0          0          0          2          1          1          0          0          0          0
  bounddisjunction :          0+       138          0        402          0          0          0          0         71          0          6          0          0          0          0
  benders          :          0          0          0          0          1          0          0          5          0          0          0          0          0          0          0
  countsols        :          0          0          0          0          1          0          0          5          0          0          0          0          0          0          0
  components       :          0          0          0          0          0          0          0          0          0          0          0          0          0          0          0
Constraint Timings :  TotalTime  SetupTime   Separate  Propagate     EnfoLP     EnfoPS     EnfoRelax   Check    ResProp    SB-Prop
  benderslp        :       0.00       0.00       0.00       0.00       0.00       0.00       0.00       0.00       0.00       0.00
  integral         :      26.89       0.00       0.00       0.00      26.88       0.00       0.00       0.00       0.00       0.00
  setppc           :       0.83       0.00       0.02       0.19       0.00       0.00       0.00       0.00       0.03       0.59
  linear           :       0.60       0.16       0.00       0.39       0.00       0.00       0.00       0.00       0.01       0.05
  logicor          :       0.00       0.00       0.00       0.00       0.00       0.00       0.00       0.00       0.00       0.00
  bounddisjunction :       0.01       0.00       0.00       0.00       0.00       0.00       0.00       0.00       0.00       0.00
  benders          :       0.00       0.00       0.00       0.00       0.00       0.00       0.00       0.00       0.00       0.00
  countsols        :       0.00       0.00       0.00       0.00       0.00       0.00       0.00       0.00       0.00       0.00
  components       :       0.00       0.00       0.00       0.00       0.00       0.00       0.00       0.00       0.00       0.00
Propagators        : #Propagate   #ResProp    Cutoffs    DomReds
  dualfix          :          6          0          0          0
  genvbounds       :          0          0          0          0
  nlobbt           :          0          0          0          0
  obbt             :          0          0          0          0
  probing          :          0          0          0          0
  pseudoobj        :        838          0          0          0
  redcost          :        495          0          0      37680
  rootredcost      :          3          0          0        688
  symmetry         :          0          0          0          0
  vbounds          :       1644          0          0          0
Propagator Timings :  TotalTime  SetupTime   Presolve  Propagate    ResProp    SB-Prop
  dualfix          :       0.00       0.00       0.00       0.00       0.00       0.00
  genvbounds       :       0.00       0.00       0.00       0.00       0.00       0.00
  nlobbt           :       0.00       0.00       0.00       0.00       0.00       0.00
  obbt             :       0.00       0.00       0.00       0.00       0.00       0.00
  probing          :       3.33       0.00       3.33       0.00       0.00       0.00
  pseudoobj        :       0.01       0.00       0.00       0.01       0.00       0.00
  redcost          :       0.14       0.00       0.00       0.14       0.00       0.00
  rootredcost      :       0.02       0.00       0.00       0.02       0.00       0.00
  symmetry         :       0.00       0.00       0.00       0.00       0.00       0.00
  vbounds          :       0.01       0.00       0.01       0.01       0.00       0.00
Conflict Analysis  :       Time      Calls    Success    DomReds  Conflicts   Literals    Reconvs ReconvLits   Dualrays   Nonzeros   LP Iters   (pool size: [10000,10000])
  propagation      :       0.02         31         31          -        106      419.4          0        0.0          -          -          -
  infeasible LP    :       0.15         35          5          -         22     1197.1          0        0.0          0        0.0          0
  bound exceed. LP :       2.42         95        124          -        334      156.9         20       98.5         32        1.0       1040
  strong branching :       0.00          0          0          -          0        0.0          0        0.0          -          -          0
  pseudo solution  :       0.00          0          0          -          0        0.0          0        0.0          -          -          -
  applied globally :       1.57          -          -         32        228       86.1          -          -         32          -          -
  applied locally  :          -          -          -          0         17      984.3          -          -          0          -          -
Separators         :   ExecTime  SetupTime      Calls  RootCalls    Cutoffs    DomReds  FoundCuts ViaPoolAdd  DirectAdd    Applied ViaPoolApp  DirectApp      Conss
  cut pool         :       0.00          -         17          0          -          -          3          2          -          -          -          -          -    (maximal pool size:          3)
  aggregation      :       0.09       0.00         14          3          0          0          0          0          0          0          0          0          0
  > cmir           :          -          -          -          -          -          -          -          0          0          0          0          0          -
  > flowcover      :          -          -          -          -          -          -          -          0          0          0          0          0          -
  > knapsackcover  :          -          -          -          -          -          -          -          0          0          0          0          0          -
  cgmip            :       0.00       0.00          0          0          0          0          0          0          0          0          0          0          0
  clique           :       0.53       0.00          3          3          0          0          0          0          0          0          0          0          0
  closecuts        :       0.00       0.00          0          0          0          0          0          0          0          0          0          0          0
  convexproj       :       0.00       0.00          0          0          0          0          0          0          0          0          0          0          0
  disjunctive      :       0.00       0.00          0          0          0          0          0          0          0          0          0          0          0
  eccuts           :       0.00       0.00          0          0          0          0          0          0          0          0          0          0          0
  gauge            :       0.00       0.00          0          0          0          0          0          0          0          0          0          0          0
  gomory           :       0.15       0.00         14          3          0          0          0          0          0          0          0          0          0
  > gomorymi       :          -          -          -          -          -          -          -          0          0          0          0          0          -
  > strongcg       :          -          -          -          -          -          -          -          0          0          0          0          0          -
  impliedbounds    :       0.01       0.00         14          3          0          0          0          0          0          0          0          0          0
  interminor       :       0.00       0.00          0          0          0          0          0          0          0          0          0          0          0
  intobj           :       0.00       0.00          0          0          0          0          0          0          0          0          0          0          0
  mcf              :       0.00       0.00          1          1          0          0          0          0          0          0          0          0          0
  minor            :       0.00       0.00          0          0          0          0          0          0          0          0          0          0          0
  mixing           :       0.00       0.00         14          3          0          0          0          0          0          0          0          0          0
  oddcycle         :       0.00       0.00          0          0          0          0          0          0          0          0          0          0          0
  rapidlearning    :       0.00       0.00          0          0          0          0          0          0          0          0          0          0          0
  rlt              :       0.00       0.00          3          3          0          0          0          0          0          0          0          0          0
  zerohalf         :       0.02       0.00         14          3          0          0          3          2          0          2          2          0          0
Cutselectors       :   ExecTime  SetupTime      Calls  RootCalls   Selected     Forced   Filtered  RootSelec   RootForc   RootFilt 
  hybrid           :       0.00       0.00          2          0          2          0          0          0          0          0
Pricers            :   ExecTime  SetupTime      Calls       Vars
  problem variables:       0.00          -          0          0
Branching Rules    :   ExecTime  SetupTime   BranchLP  BranchExt   BranchPS    Cutoffs    DomReds       Cuts      Conss   Children
  allfullstrong    :       0.00       0.00          0          0          0          0          0          0          0          0
  cloud            :       0.00       0.00          0          0          0          0          0          0          0          0
  distribution     :       0.00       0.00          0          0          0          0          0          0          0          0
  fullstrong       :       0.00       0.00          0          0          0          0          0          0          0          0
  inference        :       0.00       0.00          0          0          0          0          0          0          0          0
  leastinf         :       0.00       0.00          0          0          0          0          0          0          0          0
  lookahead        :       0.00       0.00          0          0          0          0          0          0          0          0
  mostinf          :       0.00       0.00          0          0          0          0          0          0          0          0
  multaggr         :       0.00       0.00          0          0          0          0          0          0          0          0
  nodereopt        :       0.00       0.00          0          0          0          0          0          0          0          0
  pscost           :       0.00       0.00          0          0          0          0          0          0          0          0
  random           :       0.00       0.00          0          0          0          0          0          0          0          0
  relpscost        :      26.88       0.00        134          0          0          0        125          0        194        196
  vanillafullstrong:       0.00       0.00          0          0          0          0          0          0          0          0
Primal Heuristics  :   ExecTime  SetupTime      Calls      Found       Best
  LP solutions     :       0.00          -          -          1          1
  relax solutions  :       0.00          -          -          0          0
  pseudo solutions :       0.00          -          -          0          0
  strong branching :       0.01          -          -          2          2
  actconsdiving    :       0.00       0.00          0          0          0
  adaptivediving   :       0.00       0.00          0          0          0
  alns             :       0.32       0.00          5          0          0
  bound            :       0.00       0.00          0          0          0
  clique           :       0.10       0.00          1          1          1
  coefdiving       :       0.00       0.00          0          0          0
  completesol      :       0.00       0.00          0          0          0
  conflictdiving   :       0.43       0.00          1          1          1
  crossover        :       0.00       0.00          0          0          0
  dins             :       0.00       0.00          0          0          0
  distributiondivin:       0.03       0.00          0          0          0
  dps              :       0.00       0.00          0          0          0
  dualval          :       0.00       0.00          0          0          0
  farkasdiving     :       0.00       0.00          0          0          0
  feaspump         :       5.91       0.00          1          0          0
  fixandinfer      :       0.00       0.00          0          0          0
  fracdiving       :       0.00       0.00          0          0          0
  gins             :       0.01       0.00          0          0          0
  guideddiving     :       0.00       0.00          0          0          0
  indicator        :       0.00       0.00          0          0          0
  intdiving        :       0.00       0.00          0          0          0
  intshifting      :       0.00       0.00          0          0          0
  linesearchdiving :       0.00       0.00          0          0          0
  localbranching   :       0.00       0.00          0          0          0
  locks            :       0.05       0.00          1          0          0
  lpface           :       0.00       0.00          0          0          0
  mpec             :       0.00       0.00          0          0          0
  multistart       :       0.00       0.00          0          0          0
  mutation         :       0.00       0.00          0          0          0
  nlpdiving        :       0.00       0.00          0          0          0
  objpscostdiving  :       0.00       0.00          0          0          0
  octane           :       0.00       0.00          0          0          0
  ofins            :       0.00       0.00          0          0          0
  oneopt           :       0.02       0.00          4          0          0
  padm             :       0.00       0.00          0          0          0
  proximity        :       0.00       0.00          0          0          0
  pscostdiving     :       0.00       0.00          0          0          0
  randrounding     :       0.03       0.00          6          0          0
  rens             :       0.05       0.00          1          0          0
  reoptsols        :       0.00       0.00          0          0          0
  repair           :       0.00       0.00          0          0          0
  rins             :       0.00       0.00          0          0          0
  rootsoldiving    :       0.00       0.00          0          0          0
  rounding         :       0.11       0.00        118          0          0
  shiftandpropagate:       0.00       0.00          0          0          0
  shifting         :       0.10       0.00         14          0          0
  simplerounding   :       0.00       0.00          0          0          0
  subnlp           :       0.00       0.00          0          0          0
  trivial          :       0.02       0.00          2          0          0
  trivialnegation  :       0.00       0.00          0          0          0
  trustregion      :       0.00       0.00          0          0          0
  trysol           :       0.00       0.00          0          0          0
  twoopt           :       0.00       0.00          0          0          0
  undercover       :       0.00       0.00          0          0          0
  vbounds          :       1.21       0.00          1          0          0
  veclendiving     :       0.00       0.00          0          0          0
  zeroobj          :       0.00       0.00          0          0          0
  zirounding       :       0.00       0.00         98          0          0
  other solutions  :          -          -          -          0          -
LP                 :       Time      Calls Iterations  Iter/call   Iter/sec  Time-0-It Calls-0-It    ItLimit
  primal LP        :       0.04          1          0       0.00       0.00       0.04          1
  dual LP          :       5.54        453      34064     151.40    6152.78       0.32        228
  lex dual LP      :       0.00          0          0       0.00          -
  barrier LP       :       0.00          0          0       0.00          -       0.00          0
  resolve instable :       0.00          0          0       0.00          -
  diving/probing LP:       6.49          9       8835     981.67    1360.60
  strong branching :      22.97        336     125914     374.74    5481.01          -          -        118
    (at root node) :          -         19       8958     471.47          -
  conflict analysis:       0.62        104       1040      10.00    1668.89
B&B Tree           :
  number of runs   :          1
  nodes            :        195 (98 internal, 97 leaves)
  feasible leaves  :          1
  infeas. leaves   :         25
  objective leaves :         71
  nodes (total)    :        195 (98 internal, 97 leaves)
  nodes left       :          0
  max depth        :         25
  max depth (total):         25
  backtracks       :         21 (10.8%)
  early backtracks :          0 (0.0%)
  nodes exc. ref.  :          0 (0.0%)
  delayed cutoffs  :          0
  repropagations   :         23 (13 domain reductions, 0 cutoffs)
  avg switch length:       3.25
  switching time   :       0.23
Root Node          :
  First LP value   : +8.33333333333333e+00
  First LP Iters   :        505 (3000.42 Iter/sec)
  First LP Time    :       0.17
  Final Dual Bound : +8.67636363636364e+00
  Final Root Iters :        505
  Root LP Estimate : +1.25084638235961e+01
Solution           :
  Solutions found  :          5 (5 improvements)
  First Solution   : +2.60000000000000e+01   (in run 1, after 1 nodes, 5.44 seconds, depth 6, found by <clique>)
  Gap First Sol.   :     550.00 %
  Gap Last Sol.    :      49.83 %
  Primal Bound     : +1.30000000000000e+01   (in run 1, after 53 nodes, 40.33 seconds, depth 13, found by <relaxation>)
  Dual Bound       : +1.30000000000000e+01
  Gap              :       0.00 %
Integrals          :      Total       Avg%
  primal-dual      :    2510.97      52.10
  primal-ref       :          -          - (not evaluated)
  dual-ref         :          -          - (not evaluated)
written solution information to file <results/final_miplib_symretope_if_extended_generating_set_cpx_v802__settings_final_nosym_norestarts__4__square23.mps.gz.sol>
@04 1686664982
